Normalized Data/p01_24_normalized_split0.vrp
NAME:p01_24_NORMALIZED_split
BEST_KNOWN: 0
COMMENT: 0
DIMENSION: 207
CAPACITY: 100
EDGE_WEIGHT_FORMAT: FUNCTION
EDGE_WEIGHT_TYPE: EXACT_2D
NODE_COORD_SECTION
1 0.00000 0.00000
2 -4 11
3 -4 11
4 -4 11
5 -4 11
6 -4 11
7 -4 11
8 9 -33
9 25 -21
10 25 -21
11 25 -21
12 25 -21
13 25 -21
14 14 -1
15 14 -1
16 14 -1
17 14 -1
18 14 -1
19 14 -1
20 -17 22
21 -17 22
22 -17 22
23 -17 22
24 -17 22
25 44 16
26 44 16
27 44 16
28 44 16
29 15 -38
30 15 -38
31 15 -38
32 15 -38
33 15 -38
34 -46 50
35 -46 50
36 -46 50
37 -46 50
38 -46 50
39 -40 25
40 -40 25
41 -40 25
42 -11 17
43 -11 17
44 -11 17
45 35 -39
46 35 -39
47 -11 32
48 -11 32
49 -11 32
50 -11 32
51 -11 32
52 -11 32
53 -48 -12
54 -48 -12
55 -48 -12
56 -4 3
57 -4 3
58 -4 3
59 -4 3
60 -4 3
61 -30 -8
62 -30 -8
63 -17 -3
64 27 41
65 27 41
66 27 41
67 -13 -27
68 -13 -27
69 -13 -27
70 -26 29
71 -26 29
72 -26 29
73 -26 29
74 -26 29
75 11 45
76 11 45
77 11 45
78 11 45
79 11 45
80 -36 -11
81 -36 -11
82 -36 -11
83 -36 -11
84 -36 -11
85 32 -5
86 32 -5
87 32 -5
88 32 -5
89 -47 -2
90 -47 -2
91 -47 -2
92 -47 -2
93 -47 -2
94 -1 11
95 -1 11
96 36 -10
97 36 -10
98 36 -10
99 36 -10
100 36 -10
101 36 -10
102 -48 -14
103 -48 -14
104 -48 -14
105 -49 21
106 -49 21
107 -49 21
108 -49 21
109 -49 21
110 -49 21
111 -33 -28
112 -33 -28
113 -44 -40
114 -44 -40
115 -44 -40
116 -44 -40
117 -44 -40
118 -44 -40
119 23 50
120 23 50
121 23 50
122 23 50
123 9 8
124 9 8
125 9 8
126 9 8
127 9 8
128 6 -2
129 6 -2
130 6 -2
131 6 -2
132 6 -2
133 29 17
134 29 17
135 27 -24
136 27 -24
137 10 -9
138 10 -9
139 -5 -8
140 -5 -8
141 -5 -8
142 38 -18
143 38 -18
144 38 -18
145 38 -18
146 -46 -40
147 -46 -40
148 -46 -40
149 -46 -40
150 -46 -40
151 12 23
152 12 23
153 12 23
154 12 23
155 12 23
156 12 23
157 21 -8
158 21 -8
159 21 -8
160 21 -8
161 -46 36
162 -46 36
163 -46 36
164 -15 -24
165 -15 -24
166 -15 -24
167 -15 -24
168 -15 -24
169 -17 -24
170 -17 -24
171 -17 -24
172 37 17
173 37 17
174 37 17
175 37 17
176 37 17
177 37 17
178 -34 -41
179 -34 -41
180 -34 -41
181 -34 -41
182 -34 -41
183 -34 -41
184 -42 16
185 -42 16
186 -42 16
187 -42 16
188 -42 16
189 -42 16
190 40 -33
191 40 -33
192 40 -33
193 -14 43
194 -14 43
195 33 32
196 33 32
197 33 32
198 33 32
199 33 32
200 33 32
201 -49 -30
202 -49 -30
203 -49 -30
204 -49 -30
205 -49 -30
206 -49 -30
207 -49 -30
DEMAND_SECTION
1 0
2 20
3 5
4 1
5 1
6 1
7 1
8 20
9 10
10 1
11 1
12 1
13 1
14 20
15 20
16 5
17 1
18 1
19 1
20 20
21 10
22 1
23 1
24 1
25 20
26 5
27 1
28 1
29 20
30 20
31 5
32 1
33 1
34 20
35 20
36 1
37 1
38 1
39 20
40 20
41 5
42 20
43 20
44 10
45 20
46 10
47 20
48 5
49 1
50 1
51 1
52 1
53 20
54 10
55 1
56 20
57 10
58 5
59 1
60 1
61 20
62 10
63 20
64 20
65 20
66 5
67 20
68 10
69 1
70 20
71 5
72 1
73 1
74 1
75 10
76 5
77 1
78 1
79 1
80 20
81 20
82 1
83 1
84 1
85 20
86 20
87 5
88 1
89 20
90 20
91 1
92 1
93 1
94 20
95 20
96 20
97 10
98 5
99 1
100 1
101 1
102 20
103 10
104 5
105 20
106 5
107 1
108 1
109 1
110 1
111 10
112 5
113 20
114 10
115 1
116 1
117 1
118 1
119 20
120 20
121 5
122 1
123 10
124 5
125 1
126 1
127 1
128 20
129 20
130 5
131 1
132 1
133 10
134 5
135 20
136 20
137 20
138 20
139 20
140 10
141 5
142 20
143 10
144 5
145 1
146 20
147 10
148 1
149 1
150 1
151 20
152 20
153 5
154 1
155 1
156 1
157 20
158 1
159 1
160 1
161 20
162 20
163 1
164 20
165 10
166 5
167 1
168 1
169 20
170 5
171 1
172 10
173 5
174 1
175 1
176 1
177 1
178 20
179 20
180 5
181 1
182 1
183 1
184 20
185 10
186 5
187 1
188 1
189 1
190 20
191 20
192 5
193 10
194 5
195 20
196 5
197 1
198 1
199 1
200 1
201 20
202 10
203 5
204 1
205 1
206 1
207 1
DEPOT_SECTION
1
-1
EOF