Normalized Data/p01_24_normalized_split0.sol
206 -7 32 30 31 29 28 135 12 8 11 -9 10 134 190 189 191 44 45 -18 15 13 17 14 16 159 156 157 158 -19 71 70 69 72 73 38 40 39 -41 43 42 22 20 21 23 48 50 47 46 49 51 -58 55 56 5 4 2 1 6 3 93 94 -59 57 184 187 186 188 185 183 109 107 106 104 108 105 90 91 89 -62 60 61 80 83 79 -68 67 66 181 180 177 179 178 182 112 117 -74 78 76 77 75 118 120 121 119 154 155 152 151 -82 81 103 102 101 53 52 54 88 92 -84 86 98 97 99 100 96 95 144 141 142 143 -87 85 27 26 24 25 175 172 176 173 171 174 133 132 126 122 125 124 123 -110 111 113 115 114 116 149 145 147 146 148 202 201 203 205 206 204 200 -129 127 130 131 128 136 137 -139 138 140 163 166 167 165 164 169 170 168 -153 150 63 64 65 198 196 197 199 195 194 -160 161 162 37 36 35 34 33 193 192 0 





OBJ=
1672.875
BEST_KNOWN=
0.000